; Stooge sort defined using reverse
(declare-datatypes (a b)
  ((pair :source |Prelude.(,)|
     (pair2 :source |Prelude.(,)| (proj1-pair a) (proj2-pair b)))))
(declare-datatypes (a)
  ((list :source |Prelude.[]| (nil :source |Prelude.[]|)
     (cons :source |Prelude.:| (head a) (tail (list a))))))
(define-fun-rec
  (par (a)
    (take :source Prelude.take
       ((x Int) (y (list a))) (list a)
       (ite
         (<= x 0) (_ nil a)
         (match y
           (case nil (_ nil a))
           (case (cons z xs) (cons z (take (- x 1) xs))))))))
(define-fun
  sort2 :source Sort.sort2
    ((x Int) (y Int)) (list Int)
    (ite
      (<= x y) (cons x (cons y (_ nil Int)))
      (cons y (cons x (_ nil Int)))))
(define-fun-rec
  (par (a)
    (length :source Prelude.length
       ((x (list a))) Int
       (match x
         (case nil 0)
         (case (cons y l) (+ 1 (length l)))))))
(define-fun-rec
  insert :source Sort.insert
    ((x Int) (y (list Int))) (list Int)
    (match y
      (case nil (cons x (_ nil Int)))
      (case (cons z xs)
        (ite (<= x z) (cons x y) (cons z (insert x xs))))))
(define-fun-rec
  isort :source Sort.sort
    ((x (list Int))) (list Int)
    (match x
      (case nil (_ nil Int))
      (case (cons y xs) (insert y (isort xs)))))
(define-fun-rec
  (par (a)
    (drop :source Prelude.drop
       ((x Int) (y (list a))) (list a)
       (ite
         (<= x 0) y
         (match y
           (case nil (_ nil a))
           (case (cons z xs1) (drop (- x 1) xs1)))))))
(define-fun
  (par (a)
    (splitAt :source Prelude.splitAt
       ((x Int) (y (list a))) (pair (list a) (list a))
       (pair2 (take x y) (drop x y)))))
(define-fun-rec
  (par (a)
    (++ :source Prelude.++
       ((x (list a)) (y (list a))) (list a)
       (match x
         (case nil y)
         (case (cons z xs) (cons z (++ xs y)))))))
(define-fun-rec
  (par (a)
    (reverse :let :source Prelude.reverse
       ((x (list a))) (list a)
       (match x
         (case nil (_ nil a))
         (case (cons y xs) (++ (reverse xs) (cons y (_ nil a))))))))
(define-funs-rec
  ((stooge1sort2 :source Sort.stooge1sort2
      ((x (list Int))) (list Int))
   (stoogesort :source Sort.stoogesort ((x (list Int))) (list Int))
   (stooge1sort1 :source Sort.stooge1sort1
      ((x (list Int))) (list Int)))
  ((match (splitAt (div (length x) 3) (reverse x))
     (case (pair2 ys2 zs2) (++ (stoogesort zs2) (reverse ys2))))
   (match x
     (case nil (_ nil Int))
     (case (cons y z)
       (match z
         (case nil (cons y (_ nil Int)))
         (case (cons y2 x2)
           (match x2
             (case nil (sort2 y y2))
             (case (cons x3 x4)
               (stooge1sort2 (stooge1sort1 (stooge1sort2 x)))))))))
   (match (splitAt (div (length x) 3) x)
     (case (pair2 ys2 zs1) (++ ys2 (stoogesort zs1))))))
(prove
  :source Sort.prop_StoogeSortIsSort
  (forall ((xs (list Int))) (= (stoogesort xs) (isort xs))))
